NAME : instances/clustered-mixed-tsp/instance-85.tsp
COMMENT : No Comment
TYPE : TSP
DIMENSION: 55
EDGE_WEIGHT_TYPE : EUC_2D
NODE_COORD_SECTION
1 925 893 
2 831 131 
3 393 790 
4 374 676 
5 896 299 
6 991 394 
7 374 771 
8 925 817 
9 869 112 
10 849 874 
11 374 752 
12 336 828 
13 858 261 
14 393 752 
15 934 280 
16 907 207 
17 830 760 
18 298 809 
19 858 280 
20 812 207 
21 686 234 
22 317 828 
23 934 356 
24 412 733 
25 317 809 
26 355 714 
27 412 828 
28 868 836 
29 393 828 
30 450 695 
31 982 836 
32 868 855 
33 450 790 
34 648 158 
35 800 158 
36 830 874 
37 317 771 
38 374 714 
39 298 790 
40 982 874 
41 812 131 
42 991 299 
43 887 817 
44 858 375 
45 431 771 
46 907 226 
47 849 893 
48 868 817 
49 915 261 
50 972 242 
51 858 318 
52 431 676 
53 830 836 
54 1010 299 
55 934 261 
EOF
